Problem:    Euro
Rows:       3
Columns:    20
Non-zeros:  40
Status:     OPTIMAL
Objective:  z = 1500 (MAXimum)

   No.   Row name   St   Activity     Lower bound   Upper bound    Marginal
------ ------------ -- ------------- ------------- ------------- -------------
     1 totale       NS            10            10             =           100 
     2 resto        NS             5             5             =           100 
     3 z            B           1500                             

   No. Column name  St   Activity     Lower bound   Upper bound    Marginal
------ ------------ -- ------------- ------------- ------------- -------------
     1 x[1]         B           1000             0               
     2 x[2]         NL             0             0                          -1 
     3 x[3]         NL             0             0                          -4 
     4 x[4]         NL             0             0                          -9 
     5 x[5]         NL             0             0                         -19 
     6 x[6]         NL             0             0                         -49 
     7 x[7]         NL             0             0                         -99 
     8 x[8]         NL             0             0                        -199 
     9 x[9]         NL             0             0                        -499 
    10 x[10]        NL             0             0                        -999 
    11 y[1]         B            500             0               
    12 y[2]         NL             0             0                          -1 
    13 y[3]         NL             0             0                          -4 
    14 y[4]         NL             0             0                          -9 
    15 y[5]         NL             0             0                         -19 
    16 y[6]         NL             0             0                         -49 
    17 y[7]         NL             0             0                         -99 
    18 y[8]         NL             0             0                        -199 
    19 y[9]         NL             0             0                        -499 
    20 y[10]        NL             0             0                        -999 

Karush-Kuhn-Tucker optimality conditions:

KKT.PE: max.abs.err = 0.00e+000 on row 0
        max.rel.err = 0.00e+000 on row 0
        High quality

KKT.PB: max.abs.err = 0.00e+000 on row 0
        max.rel.err = 0.00e+000 on row 0
        High quality

KKT.DE: max.abs.err = 0.00e+000 on column 0
        max.rel.err = 0.00e+000 on column 0
        High quality

KKT.DB: max.abs.err = 0.00e+000 on row 0
        max.rel.err = 0.00e+000 on row 0
        High quality

End of output
